
Gurobi 6.5.2 (linux64) logging started Sun Sep 18 18:40:56 2016


Gurobi 6.5.2 (linux64) logging started Sun Sep 18 18:40:56 2016

Optimize a model with 21 rows, 24 columns and 57 nonzeros
Coefficient statistics:
  Matrix range    [1e+00, 2e+00]
  Objective range [1e+01, 8e+01]
  Bounds range    [1e+00, 1e+00]
  RHS range       [1e+00, 1e+00]
Found heuristic solution: objective 380
Presolve removed 17 rows and 16 columns
Presolve time: 0.00s
Presolved: 4 rows, 8 columns, 15 nonzeros
Variable types: 0 continuous, 8 integer (8 binary)

Root relaxation: cutoff, 3 iterations, 0.00 seconds

    Nodes    |    Current Node    |     Objective Bounds      |     Work
 Expl Unexpl |  Obj  Depth IntInf | Incumbent    BestBd   Gap | It/Node Time

     0     0     cutoff    0       380.00000  379.00038  0.26%     -    0s

Explored 0 nodes (3 simplex iterations) in 0.00 seconds
Thread count was 8 (of 8 available processors)

Optimal solution found (tolerance 1.00e-04)
Best objective 3.800000000000e+02, best bound 3.800000000000e+02, gap 0.0%
